NAME          
ROWS
 N  OBJ
 L  c1_1
 L  c2
 L  c3
 L  c4
 L  c5
 L  c6
 L  c7
 L  c8
 L  c9
 L  c10
 L  c11
 G  c1
COLUMNS
    MARKER    'MARKER'                 'INTORG'
    x1        c1_1      1
    x1        c2        1
    x1        c6        -2
    x1        c7        -1
    x1        c11       1
    x1        OBJ       1
    x3        c6        2
    x3        c8        -2
    x3        c9        -1
    x3        c1        1
    x3        OBJ       -5
    x4        c7        1
    x4        c8        2
    x4        c10       -1
    x4        c11       1
    x4        OBJ       2
    x5        c2        -1
    x5        c3        -1
    x5        c4        -1
    x5        c5        -1
    x5        c9        1
    x5        c10       1
    x5        c11       1
    x5        OBJ       6
    x6        c1        1
    MARKER    'MARKER'                 'INTEND'
    x2        c1_1      -1
    x2        c3        1
    x2        c4        1
    x2        c5        1
    x2        OBJ       1
RHS
    rhs       c1_1      0
    rhs       c2        -1
    rhs       c3        -1
    rhs       c4        -1.299999
    rhs       c5        -0.5
    rhs       c6        14
    rhs       c7        6
    rhs       c8        -2
    rhs       c9        -3
    rhs       c10       -2.5
    rhs       c11       -10.5
    rhs       c1        -1
    rhs       OBJ       -4
RANGES
BOUNDS
 FR bounds    x1
 FR bounds    x3
 FR bounds    x4
 FR bounds    x5
 FR bounds    x6
 FR bounds    x2
ENDATA
